
Gurobi 7.0.2 (win64, Python) logging started 03/26/17 23:03:43


Gurobi 7.0.2 (win64, Python) logging started 03/26/17 23:41:51


Gurobi 7.0.2 (win64, Python) logging started 03/26/17 23:56:40


Gurobi 7.0.2 (win64, Python) logging started 03/27/17 00:01:33


Gurobi 7.0.2 (win64, Python) logging started 03/27/17 00:03:20


Gurobi 7.0.2 (win64, Python) logging started 03/27/17 00:25:48


Gurobi 7.0.2 (win64, Python) logging started 03/27/17 00:32:38


Gurobi 7.0.2 (win64, Python) logging started 03/27/17 01:48:56


Gurobi 7.0.2 (win64, Python) logging started 03/27/17 01:49:48


Gurobi 7.0.2 (win64, Python) logging started 03/27/17 01:51:46


Gurobi 7.0.2 (win64, Python) logging started 03/27/17 02:19:49


Gurobi 7.0.2 (win64, Python) logging started 03/27/17 02:23:41


Gurobi 7.0.2 (win64, Python) logging started 03/27/17 02:34:53


Gurobi 7.0.2 (win64, Python) logging started 03/27/17 02:46:08

